p cnf 21 21
-13 20 -5 -16 0
12 -1 0
3 10 16 0
-16 -12 -15 0
20 12 18 6 1 16 -7 11 -8 -4 -21 0
20 -16 4 -2 17 -11 -1 -15 -12 -6 -8 -19 18 0
1 -13 17 21 3 0
20 16 14 1 0
18 -3 16 0
-20 11 4 19 0
-17 -18 11 -1 2 5 -14 -3 21 10 6 -7 8 -13 4 16 -15 -12 9 -19 0
6 17 15 3 0
19 -14 -21 -10 0
9 13 0
19 -21 16 18 0
14 18 17 16 0
12 -19 -4 0
17 18 2 -1 0
-11 -19 -14 0
-15 1 0
-17 -18 0
